cost: 771.94
Route 1:           0   27   14    9   33    2   47    4   37   22   29   25   11   15    0
Route 2:           0   35   18   21   46    6   50   31    8   45   13    5    0
Route 3:           0   41   19   10   40   16   30   34   32   20   43    3   44   48   12    0
Route 4:           0   28   24    7   42   38   36   17    1   26   39   23   49    0
